NAME : amz2156.146054_143054.tour
COMMENT : Cost = 146054_143054
COMMENT : Found by LKH-AMZ [Keld Helsgaun] Sun May 11 13:43:51 2025
COMMENT : TW viol.: 0 #: 0
TYPE : TOUR
DIMENSION : 154
TOUR_SECTION
44
102
114
141
61
78
77
93
53
59
40
67
48
11
112
110
96
43
51
136
38
89
126
68
94
37
106
17
97
50
29
148
100
34
98
30
55
76
18
63
86
26
74
150
71
95
144
45
116
46
47
84
24
92
52
41
28
120
147
1
105
23
16
54
107
117
123
142
140
88
133
80
15
62
2
32
113
83
64
6
42
111
118
12
82
72
131
5
91
25
119
19
138
135
13
101
69
146
36
20
66
137
73
27
56
14
57
8
85
99
124
81
33
145
35
4
151
87
134
49
103
127
39
132
129
31
125
104
128
58
143
130
139
22
108
121
115
152
21
154
7
153
65
122
10
109
70
79
149
9
60
3
75
90
-1
EOF
